0 57 70
1 70 73
2 71 74
3 62 77
4 40 77
5 68 73
6 64 75
7 71 74
8 68 72
9 49 72
10 54 71
11 69 75
12 67 71
13 60 73
14 63 74
15 66 71
16 55 68
17 56 68
18 53 66
19 47 62
20 63 63
21 52 64
22 55 60
23 60 59
24 25 53
25 36 54
26 45 53
27 52 51
28 38 45
29 25 47
30 10 45
31 40 45
32 34 44
33 19 43
34 40 42
35 38 37
36 27 31
37 26 31
38 26 32
39 27 33
40 24 32
41 17 29
42 22 27
43 26 29
44 22 28
45 23 26
46 5 26
47 23 25
48 13 24
49 13 23
50 20 21
51 15 18
52 16 16
53 8 15
54 8 14
55 10 13
56 12 15
57 13 15
58 5 12
59 4 11
60 4 7
61 2 5
62 1 3
63 2 2

